(set-info :smt-lib-version 2.6)
(set-logic UF)
(set-info :source |Benchmarks from the paper: "Extending Sledgehammer with SMT Solvers" by Jasmin Blanchette, Sascha Bohme, and Lawrence C. Paulson, CADE 2011.  Translated to SMT2 by Andrew Reynolds and Morgan Deters.|)
(set-info :category "industrial")
(set-info :status sat)
(declare-sort S1 0)
(declare-sort S2 0)
(declare-sort S3 0)
(declare-sort S4 0)
(declare-sort S5 0)
(declare-sort S6 0)
(declare-sort S7 0)
(declare-sort S8 0)
(declare-sort S9 0)
(declare-sort S10 0)
(declare-sort S11 0)
(declare-sort S12 0)
(declare-sort S13 0)
(declare-sort S14 0)
(declare-sort S15 0)
(declare-sort S16 0)
(declare-sort S17 0)
(declare-sort S18 0)
(declare-sort S19 0)
(declare-sort S20 0)
(declare-sort S21 0)
(declare-sort S22 0)
(declare-sort S23 0)
(declare-sort S24 0)
(declare-sort S25 0)
(declare-sort S26 0)
(declare-sort S27 0)
(declare-sort S28 0)
(declare-sort S29 0)
(declare-sort S30 0)
(declare-fun f1 () S1)
(declare-fun f2 () S1)
(declare-fun f3 (S3 S2) S1)
(declare-fun f4 () S3)
(declare-fun f5 (S5 S2) S2)
(declare-fun f6 (S6 S2) S5)
(declare-fun f7 () S6)
(declare-fun f8 (S7 S4) S2)
(declare-fun f9 (S8 S4) S7)
(declare-fun f10 () S8)
(declare-fun f11 () S4)
(declare-fun f12 (S9 S10) S1)
(declare-fun f13 (S11 S4) S9)
(declare-fun f14 (S12 S2) S11)
(declare-fun f15 () S12)
(declare-fun f16 (S13) S10)
(declare-fun f17 (S14 S15) S13)
(declare-fun f18 () S14)
(declare-fun f19 () S15)
(declare-fun f20 (S16 S4) S1)
(declare-fun f21 (S17 S2) S16)
(declare-fun f22 (S10) S17)
(declare-fun f23 (S10 S9) S1)
(declare-fun f24 () S10)
(declare-fun f25 (S19 S18) S1)
(declare-fun f26 () S19)
(declare-fun f27 (S21 S20) S1)
(declare-fun f28 () S21)
(declare-fun f29 () S16)
(declare-fun f30 () S3)
(declare-fun f31 (S3) S3)
(declare-fun f32 () S3)
(declare-fun f33 () S13)
(declare-fun f34 (S3) S1)
(declare-fun f35 () S10)
(declare-fun f36 (S2 S3) S1)
(declare-fun f37 (S4 S16) S1)
(declare-fun f38 () S16)
(declare-fun f39 (S18 S19) S1)
(declare-fun f40 () S19)
(declare-fun f41 (S20 S21) S1)
(declare-fun f42 () S21)
(declare-fun f43 (S22 S4) S4)
(declare-fun f44 (S23 S4) S22)
(declare-fun f45 () S23)
(declare-fun f46 () S1)
(declare-fun f47 (S2) S16)
(declare-fun f48 (S24) S21)
(declare-fun f49 () S24)
(declare-fun f50 (S20) S19)
(declare-fun f51 () S20)
(declare-fun f52 (S4) S3)
(declare-fun f53 () S4)
(declare-fun f54 (S25) S16)
(declare-fun f55 () S25)
(declare-fun f56 (S26 S10) S10)
(declare-fun f57 (S10) S26)
(declare-fun f58 (S1 S1) S1)
(declare-fun f59 (S27 S21) S21)
(declare-fun f60 (S21) S27)
(declare-fun f61 (S28 S19) S19)
(declare-fun f62 (S19) S28)
(declare-fun f63 (S29 S3) S3)
(declare-fun f64 (S3) S29)
(declare-fun f65 (S10) S1)
(declare-fun f66 (S19) S1)
(declare-fun f67 (S21) S1)
(declare-fun f68 (S16) S30)
(declare-fun f69 (S30 S16) S16)
(declare-fun f70 (S16) S16)
(declare-fun f71 (S19) S19)
(declare-fun f72 (S21) S21)
(declare-fun f73 (S10) S10)
(assert (not (= f1 f2)))
(assert (forall ((?v0 S2)) (= (= (f3 f4 ?v0) f1) (exists ((?v1 S4) (?v2 S2)) (and (= ?v0 (f5 (f6 f7 ?v2) (f8 (f9 f10 ?v1) f11))) (= (f12 (f13 (f14 f15 ?v2) ?v1) (f16 (f17 f18 f19))) f1))))))
(assert (forall ((?v0 S10) (?v1 S2) (?v2 S4)) (= (= (f20 (f21 (f22 ?v0) ?v1) ?v2) f1) (= (f12 (f13 (f14 f15 ?v1) ?v2) ?v0) f1))))
(assert (forall ((?v0 S9)) (= (= (f23 f24 ?v0) f1) false)))
(assert (forall ((?v0 S18)) (= (= (f25 f26 ?v0) f1) false)))
(assert (forall ((?v0 S20)) (= (= (f27 f28 ?v0) f1) false)))
(assert (forall ((?v0 S4)) (= (= (f20 f29 ?v0) f1) false)))
(assert (forall ((?v0 S2)) (= (= (f3 f30 ?v0) f1) false)))
(assert (not (not (= (f31 f4) f32))))
(assert (not (= (f17 f18 f19) f33)))
(assert (not (= (f17 f18 f19) f33)))
(assert (= (f34 (f31 f4)) f1))
(assert (forall ((?v0 S9)) (=> (= (f12 ?v0 f35) f1) false)))
(assert (forall ((?v0 S2)) (=> (= (f36 ?v0 f32) f1) false)))
(assert (forall ((?v0 S4)) (=> (= (f37 ?v0 f38) f1) false)))
(assert (forall ((?v0 S18)) (=> (= (f39 ?v0 f40) f1) false)))
(assert (forall ((?v0 S20)) (=> (= (f41 ?v0 f42) f1) false)))
(assert (forall ((?v0 S4) (?v1 S4) (?v2 S4)) (= (f8 (f9 f10 (f43 (f44 f45 ?v0) ?v1)) ?v2) (f5 (f6 f7 (f8 (f9 f10 ?v0) ?v2)) (f8 (f9 f10 ?v1) ?v2)))))
(assert (forall ((?v0 S2)) (= (= (f3 f32 ?v0) f1) (= f46 f1))))
(assert (forall ((?v0 S4)) (= (= (f20 f38 ?v0) f1) (= f46 f1))))
(assert (forall ((?v0 S18)) (= (= (f25 f40 ?v0) f1) (= f46 f1))))
(assert (forall ((?v0 S20)) (= (= (f27 f42 ?v0) f1) (= f46 f1))))
(assert (forall ((?v0 S2)) (= (f47 ?v0) f38)))
(assert (forall ((?v0 S9)) (= (= (f23 f35 ?v0) f1) (= f46 f1))))
(assert (forall ((?v0 S2)) (= (= (f3 f32 ?v0) f1) (= f46 f1))))
(assert (forall ((?v0 S4)) (= (= (f20 f38 ?v0) f1) (= f46 f1))))
(assert (forall ((?v0 S18)) (= (= (f25 f40 ?v0) f1) (= f46 f1))))
(assert (forall ((?v0 S20)) (= (= (f27 f42 ?v0) f1) (= f46 f1))))
(assert (forall ((?v0 S2)) (= (f47 ?v0) f38)))
(assert (forall ((?v0 S9)) (= (= (f23 f35 ?v0) f1) (= f46 f1))))
(assert (forall ((?v0 S10) (?v1 S10)) (= (= (f22 ?v0) (f22 ?v1)) (= ?v0 ?v1))))
(assert (= (f16 f33) f35))
(assert (= (f48 f49) f42))
(assert (= (f50 f51) f40))
(assert (= (f52 f53) f32))
(assert (= (f54 f55) f38))
(assert (forall ((?v0 S13)) (= (= f35 (f16 ?v0)) (= ?v0 f33))))
(assert (forall ((?v0 S24)) (= (= f42 (f48 ?v0)) (= ?v0 f49))))
(assert (forall ((?v0 S20)) (= (= f40 (f50 ?v0)) (= ?v0 f51))))
(assert (forall ((?v0 S4)) (= (= f32 (f52 ?v0)) (= ?v0 f53))))
(assert (forall ((?v0 S25)) (= (= f38 (f54 ?v0)) (= ?v0 f55))))
(assert (forall ((?v0 S13)) (= (= (f16 ?v0) f35) (= ?v0 f33))))
(assert (forall ((?v0 S24)) (= (= (f48 ?v0) f42) (= ?v0 f49))))
(assert (forall ((?v0 S20)) (= (= (f50 ?v0) f40) (= ?v0 f51))))
(assert (forall ((?v0 S4)) (= (= (f52 ?v0) f32) (= ?v0 f53))))
(assert (forall ((?v0 S25)) (= (= (f54 ?v0) f38) (= ?v0 f55))))
(assert (forall ((?v0 S10) (?v1 S10) (?v2 S9)) (= (= (f23 (f56 (f57 ?v0) ?v1) ?v2) f1) (= (f58 (f23 ?v0 ?v2) (f23 ?v1 ?v2)) f1))))
(assert (forall ((?v0 S21) (?v1 S21) (?v2 S20)) (= (= (f27 (f59 (f60 ?v0) ?v1) ?v2) f1) (= (f58 (f27 ?v0 ?v2) (f27 ?v1 ?v2)) f1))))
(assert (forall ((?v0 S19) (?v1 S19) (?v2 S18)) (= (= (f25 (f61 (f62 ?v0) ?v1) ?v2) f1) (= (f58 (f25 ?v0 ?v2) (f25 ?v1 ?v2)) f1))))
(assert (forall ((?v0 S3) (?v1 S3) (?v2 S2)) (= (= (f3 (f63 (f64 ?v0) ?v1) ?v2) f1) (= (f58 (f3 ?v0 ?v2) (f3 ?v1 ?v2)) f1))))
(assert (forall ((?v0 S13)) (= (f65 (f16 ?v0)) f1)))
(assert (forall ((?v0 S4)) (= (f34 (f52 ?v0)) f1)))
(assert (forall ((?v0 S20)) (= (f66 (f50 ?v0)) f1)))
(assert (forall ((?v0 S24)) (= (f67 (f48 ?v0)) f1)))
(assert (forall ((?v0 S4)) (= (f43 (f44 f45 ?v0) f53) ?v0)))
(assert (forall ((?v0 S2) (?v1 S4)) (= (= (f20 (f47 ?v0) ?v1) f1) (= (f12 (f13 (f14 f15 ?v0) ?v1) f35) f1))))
(assert (forall ((?v0 S3)) (= (f63 (f64 ?v0) ?v0) f32)))
(assert (forall ((?v0 S16)) (= (f69 (f68 ?v0) ?v0) f38)))
(assert (forall ((?v0 S19)) (= (f61 (f62 ?v0) ?v0) f40)))
(assert (forall ((?v0 S21)) (= (f59 (f60 ?v0) ?v0) f42)))
(assert (forall ((?v0 S10)) (= (f56 (f57 ?v0) ?v0) f35)))
(assert (forall ((?v0 S3)) (= (f63 (f64 ?v0) f32) ?v0)))
(assert (forall ((?v0 S16)) (= (f69 (f68 ?v0) f38) ?v0)))
(assert (forall ((?v0 S19)) (= (f61 (f62 ?v0) f40) ?v0)))
(assert (forall ((?v0 S21)) (= (f59 (f60 ?v0) f42) ?v0)))
(assert (forall ((?v0 S10)) (= (f56 (f57 ?v0) f35) ?v0)))
(assert (forall ((?v0 S3)) (= (f63 (f64 f32) ?v0) f32)))
(assert (forall ((?v0 S16)) (= (f69 (f68 f38) ?v0) f38)))
(assert (forall ((?v0 S19)) (= (f61 (f62 f40) ?v0) f40)))
(assert (forall ((?v0 S21)) (= (f59 (f60 f42) ?v0) f42)))
(assert (forall ((?v0 S10)) (= (f56 (f57 f35) ?v0) f35)))
(assert (forall ((?v0 S2) (?v1 S4) (?v2 S2) (?v3 S4)) (=> (= (f13 (f14 f15 ?v0) ?v1) (f13 (f14 f15 ?v2) ?v3)) (=> (=> (= ?v0 ?v2) (=> (= ?v1 ?v3) false)) false))))
(assert (forall ((?v0 S2) (?v1 S4) (?v2 S2) (?v3 S4)) (= (= (f13 (f14 f15 ?v0) ?v1) (f13 (f14 f15 ?v2) ?v3)) (and (= ?v0 ?v2) (= ?v1 ?v3)))))
(assert (forall ((?v0 S10)) (= (forall ((?v1 S9)) (= (f23 ?v0 ?v1) f1)) (forall ((?v1 S2) (?v2 S4)) (= (f23 ?v0 (f13 (f14 f15 ?v1) ?v2)) f1)))))
(assert (forall ((?v0 S10) (?v1 S9)) (=> (= ?v0 f35) (not (= (f12 ?v1 ?v0) f1)))))
(assert (forall ((?v0 S3) (?v1 S2)) (=> (= ?v0 f32) (not (= (f36 ?v1 ?v0) f1)))))
(assert (forall ((?v0 S16) (?v1 S4)) (=> (= ?v0 f38) (not (= (f37 ?v1 ?v0) f1)))))
(assert (forall ((?v0 S19) (?v1 S18)) (=> (= ?v0 f40) (not (= (f39 ?v1 ?v0) f1)))))
(assert (forall ((?v0 S21) (?v1 S20)) (=> (= ?v0 f42) (not (= (f41 ?v1 ?v0) f1)))))
(assert (forall ((?v0 S3)) (= (= (f31 ?v0) f32) (forall ((?v1 S2)) (not (= (f3 ?v0 ?v1) f1))))))
(assert (forall ((?v0 S16)) (= (= (f70 ?v0) f38) (forall ((?v1 S4)) (not (= (f20 ?v0 ?v1) f1))))))
(assert (forall ((?v0 S19)) (= (= (f71 ?v0) f40) (forall ((?v1 S18)) (not (= (f25 ?v0 ?v1) f1))))))
(assert (forall ((?v0 S21)) (= (= (f72 ?v0) f42) (forall ((?v1 S20)) (not (= (f27 ?v0 ?v1) f1))))))
(assert (forall ((?v0 S10)) (= (= (f73 ?v0) f35) (forall ((?v1 S9)) (not (= (f23 ?v0 ?v1) f1))))))
(assert (forall ((?v0 S9)) (= (= (f12 ?v0 f35) f1) false)))
(assert (forall ((?v0 S2)) (= (= (f36 ?v0 f32) f1) false)))
(assert (forall ((?v0 S4)) (= (= (f37 ?v0 f38) f1) false)))
(assert (forall ((?v0 S18)) (= (= (f39 ?v0 f40) f1) false)))
(assert (forall ((?v0 S20)) (= (= (f41 ?v0 f42) f1) false)))
(assert (forall ((?v0 S3)) (= (= f32 (f31 ?v0)) (forall ((?v1 S2)) (not (= (f3 ?v0 ?v1) f1))))))
(assert (forall ((?v0 S16)) (= (= f38 (f70 ?v0)) (forall ((?v1 S4)) (not (= (f20 ?v0 ?v1) f1))))))
(assert (forall ((?v0 S19)) (= (= f40 (f71 ?v0)) (forall ((?v1 S18)) (not (= (f25 ?v0 ?v1) f1))))))
(assert (forall ((?v0 S21)) (= (= f42 (f72 ?v0)) (forall ((?v1 S20)) (not (= (f27 ?v0 ?v1) f1))))))
(assert (forall ((?v0 S10)) (= (= f35 (f73 ?v0)) (forall ((?v1 S9)) (not (= (f23 ?v0 ?v1) f1))))))
(assert (forall ((?v0 S10)) (= (forall ((?v1 S9)) (=> (= (f12 ?v1 f35) f1) (= (f23 ?v0 ?v1) f1))) true)))
(assert (forall ((?v0 S3)) (= (forall ((?v1 S2)) (=> (= (f36 ?v1 f32) f1) (= (f3 ?v0 ?v1) f1))) true)))
(assert (forall ((?v0 S16)) (= (forall ((?v1 S4)) (=> (= (f37 ?v1 f38) f1) (= (f20 ?v0 ?v1) f1))) true)))
(assert (forall ((?v0 S19)) (= (forall ((?v1 S18)) (=> (= (f39 ?v1 f40) f1) (= (f25 ?v0 ?v1) f1))) true)))
(assert (forall ((?v0 S21)) (= (forall ((?v1 S20)) (=> (= (f41 ?v1 f42) f1) (= (f27 ?v0 ?v1) f1))) true)))
(assert (forall ((?v0 S10)) (= (exists ((?v1 S9)) (and (= (f12 ?v1 f35) f1) (= (f23 ?v0 ?v1) f1))) false)))
(assert (forall ((?v0 S3)) (= (exists ((?v1 S2)) (and (= (f36 ?v1 f32) f1) (= (f3 ?v0 ?v1) f1))) false)))
(assert (forall ((?v0 S16)) (= (exists ((?v1 S4)) (and (= (f37 ?v1 f38) f1) (= (f20 ?v0 ?v1) f1))) false)))
(assert (forall ((?v0 S19)) (= (exists ((?v1 S18)) (and (= (f39 ?v1 f40) f1) (= (f25 ?v0 ?v1) f1))) false)))
(assert (forall ((?v0 S21)) (= (exists ((?v1 S20)) (and (= (f41 ?v1 f42) f1) (= (f27 ?v0 ?v1) f1))) false)))
(assert (forall ((?v0 S10)) (= (exists ((?v1 S9)) (= (f12 ?v1 ?v0) f1)) (not (= ?v0 f35)))))
(assert (forall ((?v0 S3)) (= (exists ((?v1 S2)) (= (f36 ?v1 ?v0) f1)) (not (= ?v0 f32)))))
(assert (forall ((?v0 S16)) (= (exists ((?v1 S4)) (= (f37 ?v1 ?v0) f1)) (not (= ?v0 f38)))))
(assert (forall ((?v0 S19)) (= (exists ((?v1 S18)) (= (f39 ?v1 ?v0) f1)) (not (= ?v0 f40)))))
(assert (forall ((?v0 S21)) (= (exists ((?v1 S20)) (= (f41 ?v1 ?v0) f1)) (not (= ?v0 f42)))))
(assert (forall ((?v0 S10)) (= (forall ((?v1 S9)) (not (= (f12 ?v1 ?v0) f1))) (= ?v0 f35))))
(assert (forall ((?v0 S3)) (= (forall ((?v1 S2)) (not (= (f36 ?v1 ?v0) f1))) (= ?v0 f32))))
(assert (forall ((?v0 S16)) (= (forall ((?v1 S4)) (not (= (f37 ?v1 ?v0) f1))) (= ?v0 f38))))
(assert (forall ((?v0 S19)) (= (forall ((?v1 S18)) (not (= (f39 ?v1 ?v0) f1))) (= ?v0 f40))))
(assert (forall ((?v0 S21)) (= (forall ((?v1 S20)) (not (= (f41 ?v1 ?v0) f1))) (= ?v0 f42))))
(assert (= f32 (f31 f30)))
(assert (= f38 (f70 f29)))
(assert (= f40 (f71 f26)))
(assert (= f42 (f72 f28)))
(assert (= f35 (f73 f24)))
(assert (forall ((?v0 S9)) (= (= (f23 f35 ?v0) f1) (= (f12 ?v0 f35) f1))))
(assert (forall ((?v0 S2)) (= (= (f3 f32 ?v0) f1) (= (f36 ?v0 f32) f1))))
(assert (forall ((?v0 S4)) (= (= (f20 f38 ?v0) f1) (= (f37 ?v0 f38) f1))))
(assert (forall ((?v0 S18)) (= (= (f25 f40 ?v0) f1) (= (f39 ?v0 f40) f1))))
(assert (forall ((?v0 S20)) (= (= (f27 f42 ?v0) f1) (= (f41 ?v0 f42) f1))))
(check-sat)
(exit)
